Iteration #1
Total number of hole bits is 152
Sketch file is snap_heavy_hitter_equivalent_9_canonicalizer_equivalent_1_pair_stateless_alu_1_1_codegen_iteration_1.sk
Synthesis succeeded with 2 bits, proceeding to verification.
snap_heavy_hitter_equivalent_9_canonicalizer_equivalent_1_pair_stateless_alu_1_1_verify_iter_1.sk passed syntax check. 
Verification failed.
Use returned counterexamples {'pkt_0': 0} {'state_group_0_state_0': 999, 'state_group_0_state_1': 0}
Iteration #2
Total number of hole bits is 152
Sketch file is snap_heavy_hitter_equivalent_9_canonicalizer_equivalent_1_pair_stateless_alu_1_1_codegen_iteration_2.sk
Synthesis succeeded with 2 bits, proceeding to verification.
snap_heavy_hitter_equivalent_9_canonicalizer_equivalent_1_pair_stateless_alu_1_1_verify_iter_2.sk passed syntax check. 
Verification failed.
Use returned counterexamples {'pkt_0': 1} {'state_group_0_state_0': 999, 'state_group_0_state_1': 0}
Iteration #3
Total number of hole bits is 152
Sketch file is snap_heavy_hitter_equivalent_9_canonicalizer_equivalent_1_pair_stateless_alu_1_1_codegen_iteration_3.sk
Synthesis succeeded with 2 bits, proceeding to verification.
Verification failed.
Use returned counterexamples {'pkt_0': 1} {'state_group_0_state_0': 998, 'state_group_0_state_1': 1}
Iteration #4
Total number of hole bits is 152
Sketch file is snap_heavy_hitter_equivalent_9_canonicalizer_equivalent_1_pair_stateless_alu_1_1_codegen_iteration_4.sk
Synthesis succeeded with 2 bits, proceeding to verification.
snap_heavy_hitter_equivalent_9_canonicalizer_equivalent_1_pair_stateless_alu_1_1_verify_iter_4.sk passed syntax check. 
Verification failed.
Use returned counterexamples {'pkt_0': 0} {'state_group_0_state_0': 999, 'state_group_0_state_1': 1}
Iteration #5
Total number of hole bits is 152
Sketch file is snap_heavy_hitter_equivalent_9_canonicalizer_equivalent_1_pair_stateless_alu_1_1_codegen_iteration_5.sk
Synthesis succeeded with 2 bits, proceeding to verification.
snap_heavy_hitter_equivalent_9_canonicalizer_equivalent_1_pair_stateless_alu_1_1_verify_iter_5.sk passed syntax check. 
Verification failed.
Use returned counterexamples {'pkt_0': 998} {'state_group_0_state_0': 0, 'state_group_0_state_1': 0}
Iteration #6
Total number of hole bits is 152
Sketch file is snap_heavy_hitter_equivalent_9_canonicalizer_equivalent_1_pair_stateless_alu_1_1_codegen_iteration_6.sk
Synthesis succeeded with 2 bits, proceeding to verification.
Verification failed.
Use returned counterexamples {'pkt_0': 999} {'state_group_0_state_0': 998, 'state_group_0_state_1': 0}
Iteration #7
Total number of hole bits is 152
Sketch file is snap_heavy_hitter_equivalent_9_canonicalizer_equivalent_1_pair_stateless_alu_1_1_codegen_iteration_7.sk
Synthesis succeeded with 2 bits, proceeding to verification.
snap_heavy_hitter_equivalent_9_canonicalizer_equivalent_1_pair_stateless_alu_1_1_verify_iter_7.sk passed syntax check. 
Verification failed.
Use returned counterexamples {'pkt_0': 1} {'state_group_0_state_0': 999, 'state_group_0_state_1': 1}
Iteration #8
Total number of hole bits is 152
Sketch file is snap_heavy_hitter_equivalent_9_canonicalizer_equivalent_1_pair_stateless_alu_1_1_codegen_iteration_8.sk
Synthesis succeeded with 2 bits, proceeding to verification.
snap_heavy_hitter_equivalent_9_canonicalizer_equivalent_1_pair_stateless_alu_1_1_verify_iter_8.sk passed syntax check. 
Verification failed.
Use returned counterexamples {'pkt_0': 1} {'state_group_0_state_0': 999, 'state_group_0_state_1': 2}
Iteration #9
Total number of hole bits is 152
Sketch file is snap_heavy_hitter_equivalent_9_canonicalizer_equivalent_1_pair_stateless_alu_1_1_codegen_iteration_9.sk
Synthesis succeeded with 2 bits, proceeding to verification.
snap_heavy_hitter_equivalent_9_canonicalizer_equivalent_1_pair_stateless_alu_1_1_verify_iter_9.sk passed syntax check. 
Verification failed.
Use returned counterexamples {'pkt_0': 1} {'state_group_0_state_0': 998, 'state_group_0_state_1': 0}
Iteration #10
Total number of hole bits is 152
Sketch file is snap_heavy_hitter_equivalent_9_canonicalizer_equivalent_1_pair_stateless_alu_1_1_codegen_iteration_10.sk
Synthesis succeeded with 2 bits, proceeding to verification.
snap_heavy_hitter_equivalent_9_canonicalizer_equivalent_1_pair_stateless_alu_1_1_verify_iter_10.sk passed syntax check. 
Verification failed.
Use returned counterexamples {'pkt_0': 0} {'state_group_0_state_0': 1000, 'state_group_0_state_1': 0}
Iteration #11
Total number of hole bits is 152
Sketch file is snap_heavy_hitter_equivalent_9_canonicalizer_equivalent_1_pair_stateless_alu_1_1_codegen_iteration_11.sk
Synthesis succeeded with 2 bits, proceeding to verification.
snap_heavy_hitter_equivalent_9_canonicalizer_equivalent_1_pair_stateless_alu_1_1_verify_iter_11.sk passed syntax check. 
Verification failed.
Use returned counterexamples {'pkt_0': 0} {'state_group_0_state_0': 998, 'state_group_0_state_1': 999}
Iteration #12
Total number of hole bits is 152
Sketch file is snap_heavy_hitter_equivalent_9_canonicalizer_equivalent_1_pair_stateless_alu_1_1_codegen_iteration_12.sk
Synthesis succeeded with 2 bits, proceeding to verification.
snap_heavy_hitter_equivalent_9_canonicalizer_equivalent_1_pair_stateless_alu_1_1_verify_iter_12.sk passed syntax check. 
Failed to generate counterexamples, z3 returned unsat
Compilation succeeded. Hole value assignments are following:
int snap_heavy_hitter_equivalent_9_canonicalizer_equivalent_1_pair_stateless_alu_1_1_stateful_alu_0_0_Mux3_5_global = 1
int snap_heavy_hitter_equivalent_9_canonicalizer_equivalent_1_pair_stateless_alu_1_1_stateful_alu_0_0_Mux3_19_global = 1
int snap_heavy_hitter_equivalent_9_canonicalizer_equivalent_1_pair_stateless_alu_1_1_stateful_alu_0_0_const_15_global = 7
int snap_heavy_hitter_equivalent_9_canonicalizer_equivalent_1_pair_stateless_alu_1_1_stateful_alu_0_0_Mux3_17_global = 2
int snap_heavy_hitter_equivalent_9_canonicalizer_equivalent_1_pair_stateless_alu_1_1_stateful_alu_0_0_Mux3_26_global = 3
int snap_heavy_hitter_equivalent_9_canonicalizer_equivalent_1_pair_stateless_alu_1_1_stateful_alu_0_0_arith_op_3_global = 1
int snap_heavy_hitter_equivalent_9_canonicalizer_equivalent_1_pair_stateless_alu_1_1_stateful_alu_0_0_arith_op_2_global = 0
int snap_heavy_hitter_equivalent_9_canonicalizer_equivalent_1_pair_stateless_alu_1_1_stateful_alu_0_0_Mux3_15_global = 1
int snap_heavy_hitter_equivalent_9_canonicalizer_equivalent_1_pair_stateless_alu_1_1_stateful_alu_0_0_Mux3_3_global = 0
int snap_heavy_hitter_equivalent_9_canonicalizer_equivalent_1_pair_stateless_alu_1_1_stateful_alu_0_0_const_4_global = 0
int snap_heavy_hitter_equivalent_9_canonicalizer_equivalent_1_pair_stateless_alu_1_1_stateful_alu_0_0_rel_op_2_global = 3
int snap_heavy_hitter_equivalent_9_canonicalizer_equivalent_1_pair_stateless_alu_1_1_stateful_alu_0_0_rel_op_3_global = 3
int snap_heavy_hitter_equivalent_9_canonicalizer_equivalent_1_pair_stateless_alu_1_1_stateful_alu_0_0_Mux3_7_global = 2
int snap_heavy_hitter_equivalent_9_canonicalizer_equivalent_1_pair_stateless_alu_1_1_output_mux_phv_0_0_ctrl = 3
int snap_heavy_hitter_equivalent_9_canonicalizer_equivalent_1_pair_stateless_alu_1_1_stateful_alu_0_0_Mux3_12_global = 3
int snap_heavy_hitter_equivalent_9_canonicalizer_equivalent_1_pair_stateless_alu_1_1_stateless_alu_0_0_mux2_ctrl = 0
int snap_heavy_hitter_equivalent_9_canonicalizer_equivalent_1_pair_stateless_alu_1_1_stateful_alu_0_0_const_18_global = 0
int snap_heavy_hitter_equivalent_9_canonicalizer_equivalent_1_pair_stateless_alu_1_1_stateful_alu_0_0_const_10_global = 6
int snap_heavy_hitter_equivalent_9_canonicalizer_equivalent_1_pair_stateless_alu_1_1_stateful_alu_0_0_arith_op_4_global = 0
int snap_heavy_hitter_equivalent_9_canonicalizer_equivalent_1_pair_stateless_alu_1_1_stateful_alu_0_0_rel_op_1_global = 0
int snap_heavy_hitter_equivalent_9_canonicalizer_equivalent_1_pair_stateless_alu_1_1_stateful_alu_0_0_Mux3_1_global = 1
int snap_heavy_hitter_equivalent_9_canonicalizer_equivalent_1_pair_stateless_alu_1_1_stateful_alu_0_0_Mux3_16_global = 1
int snap_heavy_hitter_equivalent_9_canonicalizer_equivalent_1_pair_stateless_alu_1_1_stateful_operand_mux_0_0_4_ctrl = 0
int snap_heavy_hitter_equivalent_9_canonicalizer_equivalent_1_pair_stateless_alu_1_1_stateful_alu_0_0_Mux3_11_global = 2
int snap_heavy_hitter_equivalent_9_canonicalizer_equivalent_1_pair_stateless_alu_1_1_stateful_alu_0_0_Mux3_14_global = 2
int snap_heavy_hitter_equivalent_9_canonicalizer_equivalent_1_pair_stateless_alu_1_1_stateful_alu_0_0_Mux3_0_global = 1
int snap_heavy_hitter_equivalent_9_canonicalizer_equivalent_1_pair_stateless_alu_1_1_stateless_alu_0_0_mux3_ctrl = 0
int snap_heavy_hitter_equivalent_9_canonicalizer_equivalent_1_pair_stateless_alu_1_1_stateful_alu_0_0_Mux3_24_global = 3
int snap_heavy_hitter_equivalent_9_canonicalizer_equivalent_1_pair_stateless_alu_1_1_stateful_alu_0_0_Mux3_20_global = 2
int snap_heavy_hitter_equivalent_9_canonicalizer_equivalent_1_pair_stateless_alu_1_1_stateful_alu_0_0_const_0_global = 1
int snap_heavy_hitter_equivalent_9_canonicalizer_equivalent_1_pair_stateless_alu_1_1_stateful_alu_0_0_arith_op_1_global = 0
int snap_heavy_hitter_equivalent_9_canonicalizer_equivalent_1_pair_stateless_alu_1_1_stateful_alu_0_0_const_3_global = 2
int snap_heavy_hitter_equivalent_9_canonicalizer_equivalent_1_pair_stateless_alu_1_1_stateful_alu_0_0_Mux3_23_global = 3
int snap_heavy_hitter_equivalent_9_canonicalizer_equivalent_1_pair_stateless_alu_1_1_stateful_alu_0_0_Opt_3_global = 0
int snap_heavy_hitter_equivalent_9_canonicalizer_equivalent_1_pair_stateless_alu_1_1_stateful_operand_mux_0_0_0_ctrl = 0
int snap_heavy_hitter_equivalent_9_canonicalizer_equivalent_1_pair_stateless_alu_1_1_stateful_alu_0_0_const_13_global = 0
int snap_heavy_hitter_equivalent_9_canonicalizer_equivalent_1_pair_stateless_alu_1_1_stateful_alu_0_0_Opt_5_global = 0
int snap_heavy_hitter_equivalent_9_canonicalizer_equivalent_1_pair_stateless_alu_1_1_stateful_alu_0_0_const_19_global = 7
int snap_heavy_hitter_equivalent_9_canonicalizer_equivalent_1_pair_stateless_alu_1_1_stateful_alu_0_0_Mux3_22_global = 2
int snap_heavy_hitter_equivalent_9_canonicalizer_equivalent_1_pair_stateless_alu_1_1_stateful_alu_0_0_Mux3_8_global = 2
int snap_heavy_hitter_equivalent_9_canonicalizer_equivalent_1_pair_stateless_alu_1_1_stateful_alu_0_0_Mux3_2_global = 0
int snap_heavy_hitter_equivalent_9_canonicalizer_equivalent_1_pair_stateless_alu_1_1_stateful_alu_0_0_Mux3_9_global = 2
int snap_heavy_hitter_equivalent_9_canonicalizer_equivalent_1_pair_stateless_alu_1_1_stateful_alu_0_0_const_17_global = 0
int snap_heavy_hitter_equivalent_9_canonicalizer_equivalent_1_pair_stateless_alu_1_1_stateful_alu_0_0_const_8_global = 1
int snap_heavy_hitter_equivalent_9_canonicalizer_equivalent_1_pair_stateless_alu_1_1_stateful_alu_0_0_const_14_global = 0
int snap_heavy_hitter_equivalent_9_canonicalizer_equivalent_1_pair_stateless_alu_1_1_stateful_alu_0_0_Mux3_25_global = 2
int snap_heavy_hitter_equivalent_9_canonicalizer_equivalent_1_pair_stateless_alu_1_1_stateful_alu_0_0_const_5_global = 0
int snap_heavy_hitter_equivalent_9_canonicalizer_equivalent_1_pair_stateless_alu_1_1_stateful_alu_0_0_const_9_global = 0
int snap_heavy_hitter_equivalent_9_canonicalizer_equivalent_1_pair_stateless_alu_1_1_stateless_alu_0_0_mux1_ctrl = 0
int snap_heavy_hitter_equivalent_9_canonicalizer_equivalent_1_pair_stateless_alu_1_1_stateful_alu_0_0_arith_op_0_global = 1
int snap_heavy_hitter_equivalent_9_canonicalizer_equivalent_1_pair_stateless_alu_1_1_stateless_alu_0_0_opcode = 14
int snap_heavy_hitter_equivalent_9_canonicalizer_equivalent_1_pair_stateless_alu_1_1_stateful_alu_0_0_const_7_global = 1
int snap_heavy_hitter_equivalent_9_canonicalizer_equivalent_1_pair_stateless_alu_1_1_stateful_operand_mux_0_0_1_ctrl = 0
int snap_heavy_hitter_equivalent_9_canonicalizer_equivalent_1_pair_stateless_alu_1_1_stateful_operand_mux_0_0_2_ctrl = 0
int snap_heavy_hitter_equivalent_9_canonicalizer_equivalent_1_pair_stateless_alu_1_1_stateful_alu_0_0_const_16_global = 0
int snap_heavy_hitter_equivalent_9_canonicalizer_equivalent_1_pair_stateless_alu_1_1_stateful_alu_0_0_Opt_1_global = 0
int snap_heavy_hitter_equivalent_9_canonicalizer_equivalent_1_pair_stateless_alu_1_1_stateful_alu_0_0_arith_op_5_global = 0
int snap_heavy_hitter_equivalent_9_canonicalizer_equivalent_1_pair_stateless_alu_1_1_stateful_alu_0_0_const_6_global = 0
int snap_heavy_hitter_equivalent_9_canonicalizer_equivalent_1_pair_stateless_alu_1_1_stateful_alu_0_0_Opt_4_global = 0
int snap_heavy_hitter_equivalent_9_canonicalizer_equivalent_1_pair_stateless_alu_1_1_salu_config_0_0 = 1
int snap_heavy_hitter_equivalent_9_canonicalizer_equivalent_1_pair_stateless_alu_1_1_stateful_alu_0_0_arith_op_7_global = 0
int snap_heavy_hitter_equivalent_9_canonicalizer_equivalent_1_pair_stateless_alu_1_1_stateless_alu_0_0_immediate = 2
int snap_heavy_hitter_equivalent_9_canonicalizer_equivalent_1_pair_stateless_alu_1_1_stateful_alu_0_0_const_12_global = 0
int snap_heavy_hitter_equivalent_9_canonicalizer_equivalent_1_pair_stateless_alu_1_1_stateful_alu_0_0_Opt_2_global = 0
int snap_heavy_hitter_equivalent_9_canonicalizer_equivalent_1_pair_stateless_alu_1_1_stateful_alu_0_0_Mux3_18_global = 0
int snap_heavy_hitter_equivalent_9_canonicalizer_equivalent_1_pair_stateless_alu_1_1_stateful_alu_0_0_Opt_6_global = 0
int snap_heavy_hitter_equivalent_9_canonicalizer_equivalent_1_pair_stateless_alu_1_1_stateful_alu_0_0_Mux3_4_global = 1
int snap_heavy_hitter_equivalent_9_canonicalizer_equivalent_1_pair_stateless_alu_1_1_stateful_alu_0_0_Mux3_6_global = 3
int snap_heavy_hitter_equivalent_9_canonicalizer_equivalent_1_pair_stateless_alu_1_1_stateful_alu_0_0_Opt_7_global = 0
int snap_heavy_hitter_equivalent_9_canonicalizer_equivalent_1_pair_stateless_alu_1_1_stateful_alu_0_0_rel_op_0_global = 1
int snap_heavy_hitter_equivalent_9_canonicalizer_equivalent_1_pair_stateless_alu_1_1_stateful_alu_0_0_Mux3_13_global = 2
int snap_heavy_hitter_equivalent_9_canonicalizer_equivalent_1_pair_stateless_alu_1_1_stateful_alu_0_0_arith_op_6_global = 0
int snap_heavy_hitter_equivalent_9_canonicalizer_equivalent_1_pair_stateless_alu_1_1_stateful_alu_0_0_Mux3_27_global = 3
int snap_heavy_hitter_equivalent_9_canonicalizer_equivalent_1_pair_stateless_alu_1_1_stateful_alu_0_0_Mux3_21_global = 2
int snap_heavy_hitter_equivalent_9_canonicalizer_equivalent_1_pair_stateless_alu_1_1_stateful_alu_0_0_Opt_0_global = 0
int snap_heavy_hitter_equivalent_9_canonicalizer_equivalent_1_pair_stateless_alu_1_1_stateful_alu_0_0_output_mux_global = 1
int snap_heavy_hitter_equivalent_9_canonicalizer_equivalent_1_pair_stateless_alu_1_1_stateful_alu_0_0_const_11_global = 2
int snap_heavy_hitter_equivalent_9_canonicalizer_equivalent_1_pair_stateless_alu_1_1_stateful_alu_0_0_const_2_global = 3
int snap_heavy_hitter_equivalent_9_canonicalizer_equivalent_1_pair_stateless_alu_1_1_stateful_alu_0_0_Mux3_10_global = 3
int snap_heavy_hitter_equivalent_9_canonicalizer_equivalent_1_pair_stateless_alu_1_1_stateful_operand_mux_0_0_3_ctrl = 0
int snap_heavy_hitter_equivalent_9_canonicalizer_equivalent_1_pair_stateless_alu_1_1_stateful_alu_0_0_const_1_global = 5
Output left in snap_heavy_hitter_equivalent_9_canonicalizer_equivalent_1_pair_stateless_alu_1_1.success